p cnf 19 18
4 6 8 11 13 15 17 -14 -12 -7 -5 -3 -2 0
-16 17 19 -18 15 0
1 5 8 11 -19 -14 -12 -10 -7 -2 0
1 4 9 11 13 -19 -14 -8 -5 -3 0
-14 3 -4 -10 0
3 9 -12 -4 -2 0
-8 -6 -12 7 0
-14 5 -2 7 0
-12 -4 13 -10 0
-14 -6 13 -2 0
7 13 -18 17 -8 -4 0
1 -14 -12 -10 -8 0
2 7 -19 -14 -12 -6 -5 -1 0
9 5 13 -10 0
2 3 7 11 -19 -5 -4 -1 0
3 -8 -5 -19 -2 0
8 9 14 15 -16 17 -13 -12 -1 -7 -2 0
1 -6 11 5 0
